Route #1: 44 67 88 40
Route #2: 66 84 90 68
Route #3: 80 94 56 21
Route #4: 83 51 81
Route #5: 52 91 50
Route #6: 69 16 55 76
Route #7: 8 17
Route #8: 5 12 58
Route #9: 35 46 31
Route #10: 57 72 36 29 43 45 2 7
Route #11: 38 47 26 48 96 64 34
Route #12: 23 61 100
Route #13: 74 13 4
Route #14: 25 65 78 42 28
Route #15: 1 70 54
Route #16: 87 37 6 49 14
Route #17: 71 62 99 98 89
Route #18: 63 77 3
Route #19: 93 75
Route #20: 30 85 11 79
Route #21: 24 95 73 53 33 32
Route #22: 86 9 92
Route #23: 19 97 27
Route #24: 39 10 18
Route #25: 20 41 22 15
Route #26: 82 60 59
Cost 27591.0000
Time 16.0006